unruly/mzn_data/found_board2.dzn
n = 4;
puzzle = 
[|BLACK, WHITE, UNKNOWN, UNKNOWN, WHITE, BLACK, BLACK, WHITE,
 |BLACK, UNKNOWN, UNKNOWN, WHITE, BLACK, WHITE, WHITE, BLACK,
 |WHITE, UNKNOWN, UNKNOWN, BLACK, WHITE, BLACK, BLACK, WHITE,
 |WHITE, UNKNOWN, UNKNOWN, BLACK, UNKNOWN, UNKNOWN, WHITE, UNKNOWN,
 |BLACK, BLACK, WHITE, WHITE, BLACK, UNKNOWN, WHITE, UNKNOWN,
 |BLACK, UNKNOWN, UNKNOWN, UNKNOWN, UNKNOWN, WHITE, BLACK, WHITE,
 |WHITE, UNKNOWN, UNKNOWN, BLACK, WHITE, BLACK, WHITE, BLACK,
 |WHITE, BLACK, WHITE, WHITE, BLACK, WHITE, BLACK, BLACK|];
