unruly/found/found_board2
BW__WBBW
B__WBWWB
W__BWBBW
W__B__W_
BBWWB_W_
B____WBW
W__BWBWB
WBWWBWBB